5
3
2
7 22
8 22
2
1 20
2 20
2
3 14
4 14
3
2
5 24
6 24
2
3 20
4 20
2
7 16
8 16
4
2
3 14
4 14
2
5 20
6 20
2
1 18
2 18
2
5 16
6 16
4
2
3 14
4 14
2
7 16
8 16
2
1 24
2 24
2
3 12
4 12
5
2
1 18
2 18
2
3 14
4 14
2
7 16
8 16
2
3 20
4 20
2
5 16
6 16
9
0 6 8 6 8 10 12 10 12
8 0 2 8 2 4 6 4 6
6 10 0 10 8 2 4 6 4
12 4 6 0 6 8 10 8 10
10 2 4 6 0 6 8 2 8
8 8 2 8 6 0 6 4 2
6 10 8 10 8 6 0 6 4
12 4 6 4 2 8 10 0 10
10 6 4 6 4 2 8 2 0
2
